NAME : rnd39_50.tsp
TYPE : TSP
DIMENSION : 50
EDGE_WEIGHT_TYPE : EUC_2D
NODE_COORD_SECTION
1 741 400
2 655 581
3 826 464
4 334 401
5 83 205
6 738 421
7 328 428
8 832 774
9 764 804
10 650 345
11 873 407
12 491 84
13 727 263
14 804 238
15 606 73
16 551 463
17 842 101
18 782 948
19 583 869
20 411 335
21 799 325
22 260 219
23 58 919
24 654 629
25 50 543
26 991 955
27 33 408
28 743 702
29 794 514
30 377 344
31 735 601
32 992 505
33 84 505
34 923 444
35 111 100
36 948 803
37 23 342
38 313 664
39 16 91
40 116 513
41 423 611
42 768 128
43 540 506
44 768 921
45 879 459
46 38 64
47 411 132
48 450 445
49 566 114
50 154 933
